c defined variables: 33 34 35 36 37 38 39 40 41 42 43 44 45 46 47 48 49 50 51 52 53 54 55 56 57 58 59 60 61 62 63 64 65 66 67 68 69 70 71 72 73 74 75 76 77 78 79 80 81 82 83 84 85 86 87 88 89 90 91 92 93 94 95 96 97 98 99 100 101 102 103 104 105 106 107 108 109 110 111 112 113 114 115 116 117 118 119 120 121 122 123 124 125 126 127 128 129 130 131 132 133 134 135 136 137 138 139 140 141 142 143 144 145 146 147 148 149 150 151 152 153 154 155 156 157 158 159 160 161 162 163 164 165 166 167 171 172 173 174 175 176 177 178 179 180 181 182 183 184 185 186 187 188 189 190 191 192 193 194 195 196 197 198 199 200 201 202 203 204 205 206 207 208 209 210 211 212 213 214 215 216 217 218 219 220 221 222 223 224 225 226 227 228 229 230 231 232 233 234 235 236 237 238 239 240 241 242 243 244 245 246 247 249 250 251 252 254 255 256 257 258 259 260 261 262 263 264 265 266 267 268 269 270 271 272 273 274 275 276 277 278 279 280 281 282 283 284 285 286 287 288 289 290 291 292 293 294 295 296 297 298 299 300 301 302 303 304 305 306 307 308 
p cnf 1396 2111
a 1 2 3 4 5 6 7 8 9 10 11 12 13 14 15 16 17 18 19 20 21 22 23 24 25 26 27 28 29 30 31 32 169 170 0
e 33 34 35 36 37 38 39 40 41 42 43 44 45 46 47 48 49 50 51 52 53 54 55 56 57 58 59 60 61 62 63 64 65 66 67 68 69 70 71 72 73 74 75 76 77 78 79 80 81 82 83 84 85 86 87 88 89 90 91 92 93 94 95 96 97 98 99 100 101 102 103 104 105 106 107 108 109 110 111 112 113 114 115 116 117 118 119 120 121 122 123 124 125 126 127 128 129 130 131 132 133 134 135 136 137 138 139 140 141 142 143 144 145 146 147 148 149 150 151 152 153 154 155 156 157 158 159 160 161 162 163 164 165 166 167 171 172 173 174 175 176 177 178 179 180 181 182 183 184 185 186 187 188 189 190 191 192 193 194 195 196 197 198 199 200 201 202 203 204 205 206 207 208 209 210 211 212 213 214 215 216 217 218 219 220 221 222 223 224 225 226 227 228 229 230 231 232 233 234 235 236 237 238 239 240 241 242 243 244 245 246 247 249 250 251 252 254 255 256 257 258 259 260 261 262 263 264 265 266 267 268 269 270 271 272 273 274 275 276 277 278 279 280 281 282 283 284 285 286 287 288 289 290 291 292 293 294 295 296 297 298 299 300 301 302 303 304 305 306 307 308 1156 1157 1158 1159 1160 1161 1162 1163 1164 1165 1166 1167 1168 1169 1170 1171 1172 1173 1174 1175 1176 1177 1178 1179 1180 1181 1182 1183 1184 1185 1186 1187 1188 1189 1190 1191 1192 1193 1194 1195 1196 1197 1198 1199 1200 1201 1202 1203 1204 1205 1206 1207 1208 1209 1210 1211 1212 1213 1214 1215 1216 1217 1218 1219 1220 1221 1222 1223 1224 1225 1226 1227 1228 1229 1230 1231 1232 1233 1234 1235 1236 1237 1238 1239 1240 1241 1242 1243 1244 1245 1246 1247 1248 1249 1250 1251 1252 1253 1254 1255 1256 1257 1258 1259 1260 1261 1262 1263 1264 1265 1266 1267 1268 1269 1270 1271 1272 1273 1274 1275 1276 1277 1278 1279 1280 1281 1282 1283 1284 1285 1286 1287 1288 1289 1290 1291 1292 1293 1294 1295 1296 1297 1298 1299 1300 1301 1302 1303 1304 1305 1306 1307 1308 1309 1310 1311 1312 1313 1314 1315 1316 1317 1318 1319 1320 1321 1322 1323 1324 1325 1326 1327 1328 1329 1330 1331 1332 1333 1334 1335 1336 1337 1338 1339 1340 1341 1342 1343 1344 1345 1346 1347 1348 1349 1350 1351 1352 1353 1354 1355 1356 1357 1358 1359 1360 1361 1362 1363 1364 1365 1366 1367 1368 1369 1370 1371 1372 1373 1374 1375 1376 1377 1378 1379 1380 1381 1382 1383 1384 1385 1386 1387 1388 1389 1390 1391 1392 1393 1394 1395 1396 0
d 168 169 170 0
d 248 1 2 3 4 5 6 7 8 9 10 11 12 13 14 15 16 17 18 19 20 21 22 23 24 25 26 27 28 29 30 31 32 169 170 0
d 253 1 2 3 4 5 6 7 8 9 10 11 12 13 14 15 16 17 18 19 20 21 22 23 24 25 26 27 28 29 30 31 32 169 170 0
1156 -33 0
-1156 33 0
1157 -34 0
-1157 34 0
-1158 -35 0
1158 35 0
1159 -36 0
-1159 36 0
1160 -37 0
-1160 37 0
-1161 -38 0
1161 38 0
1162 -39 0
-1162 39 0
1163 -40 0
-1163 40 0
-1164 -41 0
1164 41 0
-12 -42 0
12 42 0
-1165 -43 0
1165 43 0
-11 -44 0
11 44 0
-1166 -45 0
1166 45 0
-10 -46 0
10 46 0
-1167 -47 0
1167 47 0
-9 -48 0
9 48 0
-1168 -49 0
1168 49 0
-49 -50 0
49 50 0
1169 -51 0
-1169 51 0
1171 -52 0
-1171 52 0
1173 -53 0
-1173 53 0
-1176 -54 0
1176 54 0
1177 -55 0
-1177 55 0
1178 -56 0
-1178 56 0
-1179 -57 0
1179 57 0
1180 -58 0
-1180 58 0
1181 -59 0
-1181 59 0
1182 -60 0
-1182 60 0
1183 -61 0
-1183 61 0
-1184 -62 0
1184 62 0
1185 -63 0
-1185 63 0
1186 -64 0
-1186 64 0
-1187 -65 0
1187 65 0
1188 -66 0
-1188 66 0
1189 -67 0
-1189 67 0
-1190 -68 0
1190 68 0
1191 -69 0
-1191 69 0
1192 -70 0
-1192 70 0
-1193 -71 0
1193 71 0
-8 -72 0
8 72 0
-1194 -73 0
1194 73 0
-7 -74 0
7 74 0
-1195 -75 0
1195 75 0
-6 -76 0
6 76 0
-1196 -77 0
1196 77 0
-5 -78 0
5 78 0
-1197 -79 0
1197 79 0
-79 -80 0
79 80 0
1198 -81 0
-1198 81 0
1200 -82 0
-1200 82 0
1202 -83 0
-1202 83 0
-1205 -84 0
1205 84 0
1206 -85 0
-1206 85 0
1207 -86 0
-1207 86 0
-1208 -87 0
1208 87 0
1209 -88 0
-1209 88 0
1210 -89 0
-1210 89 0
1211 -90 0
-1211 90 0
1212 -91 0
-1212 91 0
-1213 -92 0
1213 92 0
1214 -93 0
-1214 93 0
1215 -94 0
-1215 94 0
-1216 -95 0
1216 95 0
1217 -96 0
-1217 96 0
1218 -97 0
-1218 97 0
-1219 -98 0
1219 98 0
1220 -99 0
-1220 99 0
1221 -100 0
-1221 100 0
-1222 -101 0
1222 101 0
-4 -102 0
4 102 0
-1223 -103 0
1223 103 0
-3 -104 0
3 104 0
-1224 -105 0
1224 105 0
-2 -106 0
2 106 0
-1225 -107 0
1225 107 0
-1 -108 0
1 108 0
-1226 -109 0
1226 109 0
-109 -110 0
109 110 0
1227 -111 0
-1227 111 0
1229 -112 0
-1229 112 0
1231 -113 0
-1231 113 0
-1234 -114 0
1234 114 0
1235 -115 0
-1235 115 0
1236 -116 0
-1236 116 0
-1237 -117 0
1237 117 0
1238 -118 0
-1238 118 0
1239 -119 0
-1239 119 0
1240 -120 0
-1240 120 0
1241 -121 0
-1241 121 0
-1242 -122 0
1242 122 0
1243 -123 0
-1243 123 0
1244 -124 0
-1244 124 0
-1245 -125 0
1245 125 0
1246 -126 0
-1246 126 0
1247 -127 0
-1247 127 0
-1248 -128 0
1248 128 0
1249 -129 0
-1249 129 0
1250 -130 0
-1250 130 0
-1251 -131 0
1251 131 0
-16 -132 0
16 132 0
-1252 -133 0
1252 133 0
-15 -134 0
15 134 0
-1253 -135 0
1253 135 0
-14 -136 0
14 136 0
-1254 -137 0
1254 137 0
-13 -138 0
13 138 0
-1255 -139 0
1255 139 0
-139 -140 0
139 140 0
1256 -141 0
-1256 141 0
1258 -142 0
-1258 142 0
1260 -143 0
-1260 143 0
-1263 -144 0
1263 144 0
1264 -145 0
-1264 145 0
1265 -146 0
-1265 146 0
-1266 -147 0
1266 147 0
1267 -148 0
-1267 148 0
1268 -149 0
-1268 149 0
-144 -150 0
144 150 0
-1269 -151 0
1269 151 0
-54 -152 0
54 152 0
-1270 -153 0
1270 153 0
-84 -154 0
84 154 0
-1271 -155 0
1271 155 0
-114 -156 0
114 156 0
-1272 -157 0
1272 157 0
-157 -158 0
157 158 0
1273 -159 0
-1273 159 0
1275 -160 0
-1275 160 0
1277 -161 0
-1277 161 0
-1280 -162 0
1280 162 0
1281 -163 0
-1281 163 0
1282 -164 0
-1282 164 0
-1283 -165 0
1283 165 0
1284 -166 0
-1284 166 0
1285 -167 0
-1285 167 0
1156 -171 0
-1156 171 0
1157 -172 0
-1157 172 0
-1286 -173 0
1286 173 0
1159 -174 0
-1159 174 0
1160 -175 0
-1160 175 0
-1287 -176 0
1287 176 0
1162 -177 0
-1162 177 0
1163 -178 0
-1163 178 0
-1288 -179 0
1288 179 0
-12 -180 0
12 180 0
-1289 -181 0
1289 181 0
-11 -182 0
11 182 0
-1290 -183 0
1290 183 0
-10 -184 0
10 184 0
-1291 -185 0
1291 185 0
-9 -186 0
9 186 0
-1292 -187 0
1292 187 0
-187 -188 0
187 188 0
1293 -189 0
-1293 189 0
1295 -190 0
-1295 190 0
1297 -191 0
-1297 191 0
-1300 -192 0
1300 192 0
1177 -193 0
-1177 193 0
1178 -194 0
-1178 194 0
-1301 -195 0
1301 195 0
1302 -196 0
-1302 196 0
1303 -197 0
-1303 197 0
1304 -198 0
-1304 198 0
1305 -199 0
-1305 199 0
-1306 -200 0
1306 200 0
1185 -201 0
-1185 201 0
1186 -202 0
-1186 202 0
-1307 -203 0
1307 203 0
1188 -204 0
-1188 204 0
1189 -205 0
-1189 205 0
-1308 -206 0
1308 206 0
1191 -207 0
-1191 207 0
1192 -208 0
-1192 208 0
-1309 -209 0
1309 209 0
-8 -210 0
8 210 0
-1310 -211 0
1310 211 0
-7 -212 0
7 212 0
-1311 -213 0
1311 213 0
-6 -214 0
6 214 0
-1312 -215 0
1312 215 0
-5 -216 0
5 216 0
-1313 -217 0
1313 217 0
-217 -218 0
217 218 0
1314 -219 0
-1314 219 0
1316 -220 0
-1316 220 0
1318 -221 0
-1318 221 0
-1321 -222 0
1321 222 0
1206 -223 0
-1206 223 0
1207 -224 0
-1207 224 0
-1322 -225 0
1322 225 0
1323 -226 0
-1323 226 0
1324 -227 0
-1324 227 0
1325 -228 0
-1325 228 0
1326 -229 0
-1326 229 0
-1327 -230 0
1327 230 0
1217 -231 0
-1217 231 0
1218 -232 0
-1218 232 0
-1328 -233 0
1328 233 0
1220 -234 0
-1220 234 0
1221 -235 0
-1221 235 0
-1329 -236 0
1329 236 0
-4 -237 0
4 237 0
-1330 -238 0
1330 238 0
-3 -239 0
3 239 0
-1331 -240 0
1331 240 0
-2 -241 0
2 241 0
-1332 -242 0
1332 242 0
-1 -243 0
1 243 0
-1333 -244 0
1333 244 0
-244 -245 0
244 245 0
1334 -246 0
-1334 246 0
1336 -247 0
-1336 247 0
-1339 -249 0
1339 249 0
1235 -250 0
-1235 250 0
1236 -251 0
-1236 251 0
-1340 -252 0
1340 252 0
1341 -254 0
-1341 254 0
1342 -255 0
-1342 255 0
1343 -256 0
-1343 256 0
-1344 -257 0
1344 257 0
1243 -258 0
-1243 258 0
1244 -259 0
-1244 259 0
-1345 -260 0
1345 260 0
1246 -261 0
-1246 261 0
1247 -262 0
-1247 262 0
-1346 -263 0
1346 263 0
1249 -264 0
-1249 264 0
1250 -265 0
-1250 265 0
-1347 -266 0
1347 266 0
-16 -267 0
16 267 0
-1348 -268 0
1348 268 0
-15 -269 0
15 269 0
-1349 -270 0
1349 270 0
-14 -271 0
14 271 0
-1350 -272 0
1350 272 0
-13 -273 0
13 273 0
-1351 -274 0
1351 274 0
-274 -275 0
274 275 0
1352 -276 0
-1352 276 0
1354 -277 0
-1354 277 0
1356 -278 0
-1356 278 0
-1359 -279 0
1359 279 0
1264 -280 0
-1264 280 0
1265 -281 0
-1265 281 0
-1360 -282 0
1360 282 0
1361 -283 0
-1361 283 0
1362 -284 0
-1362 284 0
-279 -285 0
279 285 0
-1363 -286 0
1363 286 0
-192 -287 0
192 287 0
-1364 -288 0
1364 288 0
-222 -289 0
222 289 0
-1365 -290 0
1365 290 0
-249 -291 0
249 291 0
-1366 -292 0
1366 292 0
-292 -293 0
292 293 0
1367 -294 0
-1367 294 0
1369 -295 0
-1369 295 0
1371 -296 0
-1371 296 0
-1374 -297 0
1374 297 0
1375 -298 0
-1375 298 0
1376 -299 0
-1376 299 0
-1377 -300 0
1377 300 0
1378 -301 0
-1378 301 0
1379 -302 0
-1379 302 0
1382 -303 0
-1382 303 0
1385 -304 0
-1385 304 0
1388 -305 0
-1388 305 0
1390 -306 0
-1390 306 0
1393 -307 0
-1393 307 0
1396 -308 0
-1396 308 0
-33 -11 0
-33 27 0
11 -27 33 0
-34 11 0
-34 -27 0
-11 27 34 0
-33 35 0
-34 35 0
-35 33 34 0
-36 -10 0
-36 26 0
10 -26 36 0
-37 10 0
-37 -26 0
-10 26 37 0
-36 38 0
-37 38 0
-38 36 37 0
-39 -9 0
-39 25 0
9 -25 39 0
-40 9 0
-40 -25 0
-9 25 40 0
-39 41 0
-40 41 0
-41 39 40 0
-12 -42 0
12 42 0
-42 43 0
-28 43 0
-43 42 28 0
-11 -44 0
11 44 0
-44 45 0
-27 45 0
-45 44 27 0
-10 -46 0
10 46 0
-46 47 0
-26 47 0
-47 46 26 0
-9 -48 0
9 48 0
-48 49 0
-25 49 0
-49 48 25 0
-49 -50 0
49 50 0
-51 -41 0
-51 -47 0
41 47 51 0
-52 -38 0
-52 -41 0
-52 -45 0
38 41 45 52 0
-53 -35 0
-53 -38 0
-53 -41 0
-53 -43 0
35 38 41 43 53 0
-50 54 0
-51 54 0
-52 54 0
-53 54 0
-54 50 51 52 53 0
-55 -12 0
-55 28 0
12 -28 55 0
-56 12 0
-56 -28 0
-12 28 56 0
-55 57 0
-56 57 0
-57 55 56 0
-58 -57 0
-58 -35 0
-58 -38 0
-58 -41 0
57 35 38 41 58 0
-59 -54 0
-59 -58 0
54 58 59 0
-60 -54 0
-60 59 0
54 -59 60 0
-61 54 0
-61 -59 0
-54 59 61 0
-60 62 0
-61 62 0
-62 60 61 0
-63 -7 0
-63 23 0
7 -23 63 0
-64 7 0
-64 -23 0
-7 23 64 0
-63 65 0
-64 65 0
-65 63 64 0
-66 -6 0
-66 22 0
6 -22 66 0
-67 6 0
-67 -22 0
-6 22 67 0
-66 68 0
-67 68 0
-68 66 67 0
-69 -5 0
-69 21 0
5 -21 69 0
-70 5 0
-70 -21 0
-5 21 70 0
-69 71 0
-70 71 0
-71 69 70 0
-8 -72 0
8 72 0
-72 73 0
-24 73 0
-73 72 24 0
-7 -74 0
7 74 0
-74 75 0
-23 75 0
-75 74 23 0
-6 -76 0
6 76 0
-76 77 0
-22 77 0
-77 76 22 0
-5 -78 0
5 78 0
-78 79 0
-21 79 0
-79 78 21 0
-79 -80 0
79 80 0
-81 -71 0
-81 -77 0
71 77 81 0
-82 -68 0
-82 -71 0
-82 -75 0
68 71 75 82 0
-83 -65 0
-83 -68 0
-83 -71 0
-83 -73 0
65 68 71 73 83 0
-80 84 0
-81 84 0
-82 84 0
-83 84 0
-84 80 81 82 83 0
-85 -8 0
-85 24 0
8 -24 85 0
-86 8 0
-86 -24 0
-8 24 86 0
-85 87 0
-86 87 0
-87 85 86 0
-88 -87 0
-88 -65 0
-88 -68 0
-88 -71 0
87 65 68 71 88 0
-89 -84 0
-89 -88 0
84 88 89 0
-90 -84 0
-90 89 0
84 -89 90 0
-91 84 0
-91 -89 0
-84 89 91 0
-90 92 0
-91 92 0
-92 90 91 0
-93 -3 0
-93 19 0
3 -19 93 0
-94 3 0
-94 -19 0
-3 19 94 0
-93 95 0
-94 95 0
-95 93 94 0
-96 -2 0
-96 18 0
2 -18 96 0
-97 2 0
-97 -18 0
-2 18 97 0
-96 98 0
-97 98 0
-98 96 97 0
-99 -1 0
-99 17 0
1 -17 99 0
-100 1 0
-100 -17 0
-1 17 100 0
-99 101 0
-100 101 0
-101 99 100 0
-4 -102 0
4 102 0
-102 103 0
-20 103 0
-103 102 20 0
-3 -104 0
3 104 0
-104 105 0
-19 105 0
-105 104 19 0
-2 -106 0
2 106 0
-106 107 0
-18 107 0
-107 106 18 0
-1 -108 0
1 108 0
-108 109 0
-17 109 0
-109 108 17 0
-109 -110 0
109 110 0
-111 -101 0
-111 -107 0
101 107 111 0
-112 -98 0
-112 -101 0
-112 -105 0
98 101 105 112 0
-113 -95 0
-113 -98 0
-113 -101 0
-113 -103 0
95 98 101 103 113 0
-110 114 0
-111 114 0
-112 114 0
-113 114 0
-114 110 111 112 113 0
-115 -4 0
-115 20 0
4 -20 115 0
-116 4 0
-116 -20 0
-4 20 116 0
-115 117 0
-116 117 0
-117 115 116 0
-118 -117 0
-118 -95 0
-118 -98 0
-118 -101 0
117 95 98 101 118 0
-119 -114 0
-119 -118 0
114 118 119 0
-120 -114 0
-120 119 0
114 -119 120 0
-121 114 0
-121 -119 0
-114 119 121 0
-120 122 0
-121 122 0
-122 120 121 0
-123 -15 0
-123 31 0
15 -31 123 0
-124 15 0
-124 -31 0
-15 31 124 0
-123 125 0
-124 125 0
-125 123 124 0
-126 -14 0
-126 30 0
14 -30 126 0
-127 14 0
-127 -30 0
-14 30 127 0
-126 128 0
-127 128 0
-128 126 127 0
-129 -13 0
-129 29 0
13 -29 129 0
-130 13 0
-130 -29 0
-13 29 130 0
-129 131 0
-130 131 0
-131 129 130 0
-16 -132 0
16 132 0
-132 133 0
-32 133 0
-133 132 32 0
-15 -134 0
15 134 0
-134 135 0
-31 135 0
-135 134 31 0
-14 -136 0
14 136 0
-136 137 0
-30 137 0
-137 136 30 0
-13 -138 0
13 138 0
-138 139 0
-29 139 0
-139 138 29 0
-139 -140 0
139 140 0
-141 -131 0
-141 -137 0
131 137 141 0
-142 -128 0
-142 -131 0
-142 -135 0
128 131 135 142 0
-143 -125 0
-143 -128 0
-143 -131 0
-143 -133 0
125 128 131 133 143 0
-140 144 0
-141 144 0
-142 144 0
-143 144 0
-144 140 141 142 143 0
-145 -16 0
-145 32 0
16 -32 145 0
-146 16 0
-146 -32 0
-16 32 146 0
-145 147 0
-146 147 0
-147 145 146 0
-148 -147 0
-148 -125 0
-148 -128 0
-148 -131 0
147 125 128 131 148 0
-149 -144 0
-149 -148 0
144 148 149 0
-144 -150 0
144 150 0
-150 151 0
-149 151 0
-151 150 149 0
-54 -152 0
54 152 0
-152 153 0
-59 153 0
-153 152 59 0
-84 -154 0
84 154 0
-154 155 0
-89 155 0
-155 154 89 0
-114 -156 0
114 156 0
-156 157 0
-119 157 0
-157 156 119 0
-157 -158 0
157 158 0
-159 -122 0
-159 -155 0
122 155 159 0
-160 -92 0
-160 -122 0
-160 -153 0
92 122 153 160 0
-161 -62 0
-161 -92 0
-161 -122 0
-161 -151 0
62 92 122 151 161 0
-158 162 0
-159 162 0
-160 162 0
-161 162 0
-162 158 159 160 161 0
-163 -144 0
-163 149 0
144 -149 163 0
-164 144 0
-164 -149 0
-144 149 164 0
-163 165 0
-164 165 0
-165 163 164 0
-166 -165 0
-166 -62 0
-166 -92 0
-166 -122 0
165 62 92 122 166 0
-167 -162 0
-167 -166 0
162 166 167 0
-171 -11 0
-171 27 0
11 -27 171 0
-172 11 0
-172 -27 0
-11 27 172 0
-171 173 0
-172 173 0
-173 171 172 0
-174 -10 0
-174 26 0
10 -26 174 0
-175 10 0
-175 -26 0
-10 26 175 0
-174 176 0
-175 176 0
-176 174 175 0
-177 -9 0
-177 25 0
9 -25 177 0
-178 9 0
-178 -25 0
-9 25 178 0
-177 179 0
-178 179 0
-179 177 178 0
-12 -180 0
12 180 0
-180 181 0
-28 181 0
-181 180 28 0
-11 -182 0
11 182 0
-182 183 0
-27 183 0
-183 182 27 0
-10 -184 0
10 184 0
-184 185 0
-26 185 0
-185 184 26 0
-9 -186 0
9 186 0
-186 187 0
-25 187 0
-187 186 25 0
-187 -188 0
187 188 0
-189 -179 0
-189 -185 0
179 185 189 0
-190 -176 0
-190 -179 0
-190 -183 0
176 179 183 190 0
-191 -173 0
-191 -176 0
-191 -179 0
-191 -181 0
173 176 179 181 191 0
-188 192 0
-189 192 0
-190 192 0
-191 192 0
-192 188 189 190 191 0
-193 -12 0
-193 28 0
12 -28 193 0
-194 12 0
-194 -28 0
-12 28 194 0
-193 195 0
-194 195 0
-195 193 194 0
-196 -195 0
-196 -173 0
-196 -176 0
-196 -179 0
195 173 176 179 196 0
-197 -192 0
-197 -196 0
192 196 197 0
-198 -192 0
-198 197 0
192 -197 198 0
-199 192 0
-199 -197 0
-192 197 199 0
-198 200 0
-199 200 0
-200 198 199 0
-201 -7 0
-201 23 0
7 -23 201 0
-202 7 0
-202 -23 0
-7 23 202 0
-201 203 0
-202 203 0
-203 201 202 0
-204 -6 0
-204 22 0
6 -22 204 0
-205 6 0
-205 -22 0
-6 22 205 0
-204 206 0
-205 206 0
-206 204 205 0
-207 -5 0
-207 21 0
5 -21 207 0
-208 5 0
-208 -21 0
-5 21 208 0
-207 209 0
-208 209 0
-209 207 208 0
-8 -210 0
8 210 0
-210 211 0
-24 211 0
-211 210 24 0
-7 -212 0
7 212 0
-212 213 0
-23 213 0
-213 212 23 0
-6 -214 0
6 214 0
-214 215 0
-22 215 0
-215 214 22 0
-5 -216 0
5 216 0
-216 217 0
-21 217 0
-217 216 21 0
-217 -218 0
217 218 0
-219 -209 0
-219 -215 0
209 215 219 0
-220 -206 0
-220 -209 0
-220 -213 0
206 209 213 220 0
-221 -203 0
-221 -206 0
-221 -209 0
-221 -211 0
203 206 209 211 221 0
-218 222 0
-219 222 0
-220 222 0
-221 222 0
-222 218 219 220 221 0
-223 -8 0
-223 24 0
8 -24 223 0
-224 8 0
-224 -24 0
-8 24 224 0
-223 225 0
-224 225 0
-225 223 224 0
-226 -225 0
-226 -203 0
-226 -206 0
-226 -209 0
225 203 206 209 226 0
-227 -222 0
-227 -226 0
222 226 227 0
-228 -222 0
-228 227 0
222 -227 228 0
-229 222 0
-229 -227 0
-222 227 229 0
-228 230 0
-229 230 0
-230 228 229 0
-231 -2 0
-231 18 0
2 -18 231 0
-232 2 0
-232 -18 0
-2 18 232 0
-231 233 0
-232 233 0
-233 231 232 0
-234 -1 0
-234 17 0
1 -17 234 0
-235 1 0
-235 -17 0
-1 17 235 0
-234 236 0
-235 236 0
-236 234 235 0
-4 -237 0
4 237 0
-237 238 0
-20 238 0
-238 237 20 0
-3 -239 0
3 239 0
-239 240 0
-19 240 0
-240 239 19 0
-2 -241 0
2 241 0
-241 242 0
-18 242 0
-242 241 18 0
-1 -243 0
1 243 0
-243 244 0
-17 244 0
-244 243 17 0
-244 -245 0
244 245 0
-246 -236 0
-246 -242 0
236 242 246 0
-247 -233 0
-247 -236 0
-247 -240 0
233 236 240 247 0
-248 -168 0
-248 -233 0
-248 -236 0
-248 -238 0
168 233 236 238 248 0
-245 249 0
-246 249 0
-247 249 0
-248 249 0
-249 245 246 247 248 0
-250 -4 0
-250 20 0
4 -20 250 0
-251 4 0
-251 -20 0
-4 20 251 0
-250 252 0
-251 252 0
-252 250 251 0
-253 -252 0
-253 -168 0
-253 -233 0
-253 -236 0
252 168 233 236 253 0
-254 -249 0
-254 -253 0
249 253 254 0
-255 -249 0
-255 254 0
249 -254 255 0
-256 249 0
-256 -254 0
-249 254 256 0
-255 257 0
-256 257 0
-257 255 256 0
-258 -15 0
-258 31 0
15 -31 258 0
-259 15 0
-259 -31 0
-15 31 259 0
-258 260 0
-259 260 0
-260 258 259 0
-261 -14 0
-261 30 0
14 -30 261 0
-262 14 0
-262 -30 0
-14 30 262 0
-261 263 0
-262 263 0
-263 261 262 0
-264 -13 0
-264 29 0
13 -29 264 0
-265 13 0
-265 -29 0
-13 29 265 0
-264 266 0
-265 266 0
-266 264 265 0
-16 -267 0
16 267 0
-267 268 0
-32 268 0
-268 267 32 0
-15 -269 0
15 269 0
-269 270 0
-31 270 0
-270 269 31 0
-14 -271 0
14 271 0
-271 272 0
-30 272 0
-272 271 30 0
-13 -273 0
13 273 0
-273 274 0
-29 274 0
-274 273 29 0
-274 -275 0
274 275 0
-276 -266 0
-276 -272 0
266 272 276 0
-277 -263 0
-277 -266 0
-277 -270 0
263 266 270 277 0
-278 -260 0
-278 -263 0
-278 -266 0
-278 -268 0
260 263 266 268 278 0
-275 279 0
-276 279 0
-277 279 0
-278 279 0
-279 275 276 277 278 0
-280 -16 0
-280 32 0
16 -32 280 0
-281 16 0
-281 -32 0
-16 32 281 0
-280 282 0
-281 282 0
-282 280 281 0
-283 -282 0
-283 -260 0
-283 -263 0
-283 -266 0
282 260 263 266 283 0
-284 -279 0
-284 -283 0
279 283 284 0
-279 -285 0
279 285 0
-285 286 0
-284 286 0
-286 285 284 0
-192 -287 0
192 287 0
-287 288 0
-197 288 0
-288 287 197 0
-222 -289 0
222 289 0
-289 290 0
-227 290 0
-290 289 227 0
-249 -291 0
249 291 0
-291 292 0
-254 292 0
-292 291 254 0
-292 -293 0
292 293 0
-294 -257 0
-294 -290 0
257 290 294 0
-295 -230 0
-295 -257 0
-295 -288 0
230 257 288 295 0
-296 -200 0
-296 -230 0
-296 -257 0
-296 -286 0
200 230 257 286 296 0
-293 297 0
-294 297 0
-295 297 0
-296 297 0
-297 293 294 295 296 0
-298 -279 0
-298 284 0
279 -284 298 0
-299 279 0
-299 -284 0
-279 284 299 0
-298 300 0
-299 300 0
-300 298 299 0
-301 -300 0
-301 -200 0
-301 -230 0
-301 -257 0
300 200 230 257 301 0
-302 -297 0
-302 -301 0
297 301 302 0
-303 -167 302 0
-303 167 -302 0
303 -167 -302 0
303 167 302 0
-304 -166 301 0
-304 166 -301 0
304 -166 -301 0
304 166 301 0
-305 -162 297 0
-305 162 -297 0
305 -162 -297 0
305 162 297 0
-303 -304 -305 306 0
-306 303 0
-306 304 0
-306 305 0
-3 -169 -307 0
-3 169 307 0
3 -169 307 0
3 169 -307 0
-19 -170 -308 0
-19 170 308 0
19 -170 308 0
19 170 -308 0
307 308 306 0
-11 -1156 0
27 -1156 0
11 -27 1156 0
11 -1157 0
-27 -1157 0
-11 27 1157 0
-33 -1158 0
-34 -1158 0
33 34 1158 0
-10 -1159 0
26 -1159 0
10 -26 1159 0
10 -1160 0
-26 -1160 0
-10 26 1160 0
-36 -1161 0
-37 -1161 0
36 37 1161 0
-9 -1162 0
25 -1162 0
9 -25 1162 0
9 -1163 0
-25 -1163 0
-9 25 1163 0
-39 -1164 0
-40 -1164 0
39 40 1164 0
-28 -1165 0
-42 -1165 0
28 42 1165 0
-27 -1166 0
-44 -1166 0
27 44 1166 0
-26 -1167 0
-46 -1167 0
26 46 1167 0
-25 -1168 0
-48 -1168 0
25 48 1168 0
-41 -1169 0
-47 -1169 0
41 47 1169 0
-38 -1170 0
-41 -1170 0
38 41 1170 0
-45 -1171 0
1170 -1171 0
45 -1170 1171 0
-35 -1172 0
1170 -1172 0
35 -1170 1172 0
-43 -1173 0
1172 -1173 0
43 -1172 1173 0
-50 -1174 0
-51 -1174 0
50 51 1174 0
-52 -1175 0
-53 -1175 0
52 53 1175 0
1174 -1176 0
1175 -1176 0
-1174 -1175 1176 0
-12 -1177 0
28 -1177 0
12 -28 1177 0
12 -1178 0
-28 -1178 0
-12 28 1178 0
-55 -1179 0
-56 -1179 0
55 56 1179 0
-57 -1180 0
1172 -1180 0
57 -1172 1180 0
-54 -1181 0
-58 -1181 0
54 58 1181 0
-54 -1182 0
59 -1182 0
54 -59 1182 0
54 -1183 0
-59 -1183 0
-54 59 1183 0
-60 -1184 0
-61 -1184 0
60 61 1184 0
-7 -1185 0
23 -1185 0
7 -23 1185 0
7 -1186 0
-23 -1186 0
-7 23 1186 0
-63 -1187 0
-64 -1187 0
63 64 1187 0
-6 -1188 0
22 -1188 0
6 -22 1188 0
6 -1189 0
-22 -1189 0
-6 22 1189 0
-66 -1190 0
-67 -1190 0
66 67 1190 0
-5 -1191 0
21 -1191 0
5 -21 1191 0
5 -1192 0
-21 -1192 0
-5 21 1192 0
-69 -1193 0
-70 -1193 0
69 70 1193 0
-24 -1194 0
-72 -1194 0
24 72 1194 0
-23 -1195 0
-74 -1195 0
23 74 1195 0
-22 -1196 0
-76 -1196 0
22 76 1196 0
-21 -1197 0
-78 -1197 0
21 78 1197 0
-71 -1198 0
-77 -1198 0
71 77 1198 0
-68 -1199 0
-71 -1199 0
68 71 1199 0
-75 -1200 0
1199 -1200 0
75 -1199 1200 0
-65 -1201 0
1199 -1201 0
65 -1199 1201 0
-73 -1202 0
1201 -1202 0
73 -1201 1202 0
-80 -1203 0
-81 -1203 0
80 81 1203 0
-82 -1204 0
-83 -1204 0
82 83 1204 0
1203 -1205 0
1204 -1205 0
-1203 -1204 1205 0
-8 -1206 0
24 -1206 0
8 -24 1206 0
8 -1207 0
-24 -1207 0
-8 24 1207 0
-85 -1208 0
-86 -1208 0
85 86 1208 0
-87 -1209 0
1201 -1209 0
87 -1201 1209 0
-84 -1210 0
-88 -1210 0
84 88 1210 0
-84 -1211 0
89 -1211 0
84 -89 1211 0
84 -1212 0
-89 -1212 0
-84 89 1212 0
-90 -1213 0
-91 -1213 0
90 91 1213 0
-3 -1214 0
19 -1214 0
3 -19 1214 0
3 -1215 0
-19 -1215 0
-3 19 1215 0
-93 -1216 0
-94 -1216 0
93 94 1216 0
-2 -1217 0
18 -1217 0
2 -18 1217 0
2 -1218 0
-18 -1218 0
-2 18 1218 0
-96 -1219 0
-97 -1219 0
96 97 1219 0
-1 -1220 0
17 -1220 0
1 -17 1220 0
1 -1221 0
-17 -1221 0
-1 17 1221 0
-99 -1222 0
-100 -1222 0
99 100 1222 0
-20 -1223 0
-102 -1223 0
20 102 1223 0
-19 -1224 0
-104 -1224 0
19 104 1224 0
-18 -1225 0
-106 -1225 0
18 106 1225 0
-17 -1226 0
-108 -1226 0
17 108 1226 0
-101 -1227 0
-107 -1227 0
101 107 1227 0
-98 -1228 0
-101 -1228 0
98 101 1228 0
-105 -1229 0
1228 -1229 0
105 -1228 1229 0
-95 -1230 0
1228 -1230 0
95 -1228 1230 0
-103 -1231 0
1230 -1231 0
103 -1230 1231 0
-110 -1232 0
-111 -1232 0
110 111 1232 0
-112 -1233 0
-113 -1233 0
112 113 1233 0
1232 -1234 0
1233 -1234 0
-1232 -1233 1234 0
-4 -1235 0
20 -1235 0
4 -20 1235 0
4 -1236 0
-20 -1236 0
-4 20 1236 0
-115 -1237 0
-116 -1237 0
115 116 1237 0
-117 -1238 0
1230 -1238 0
117 -1230 1238 0
-114 -1239 0
-118 -1239 0
114 118 1239 0
-114 -1240 0
119 -1240 0
114 -119 1240 0
114 -1241 0
-119 -1241 0
-114 119 1241 0
-120 -1242 0
-121 -1242 0
120 121 1242 0
-15 -1243 0
31 -1243 0
15 -31 1243 0
15 -1244 0
-31 -1244 0
-15 31 1244 0
-123 -1245 0
-124 -1245 0
123 124 1245 0
-14 -1246 0
30 -1246 0
14 -30 1246 0
14 -1247 0
-30 -1247 0
-14 30 1247 0
-126 -1248 0
-127 -1248 0
126 127 1248 0
-13 -1249 0
29 -1249 0
13 -29 1249 0
13 -1250 0
-29 -1250 0
-13 29 1250 0
-129 -1251 0
-130 -1251 0
129 130 1251 0
-32 -1252 0
-132 -1252 0
32 132 1252 0
-31 -1253 0
-134 -1253 0
31 134 1253 0
-30 -1254 0
-136 -1254 0
30 136 1254 0
-29 -1255 0
-138 -1255 0
29 138 1255 0
-131 -1256 0
-137 -1256 0
131 137 1256 0
-128 -1257 0
-131 -1257 0
128 131 1257 0
-135 -1258 0
1257 -1258 0
135 -1257 1258 0
-125 -1259 0
1257 -1259 0
125 -1257 1259 0
-133 -1260 0
1259 -1260 0
133 -1259 1260 0
-140 -1261 0
-141 -1261 0
140 141 1261 0
-142 -1262 0
-143 -1262 0
142 143 1262 0
1261 -1263 0
1262 -1263 0
-1261 -1262 1263 0
-16 -1264 0
32 -1264 0
16 -32 1264 0
16 -1265 0
-32 -1265 0
-16 32 1265 0
-145 -1266 0
-146 -1266 0
145 146 1266 0
-147 -1267 0
1259 -1267 0
147 -1259 1267 0
-144 -1268 0
-148 -1268 0
144 148 1268 0
-149 -1269 0
-150 -1269 0
149 150 1269 0
-59 -1270 0
-152 -1270 0
59 152 1270 0
-89 -1271 0
-154 -1271 0
89 154 1271 0
-119 -1272 0
-156 -1272 0
119 156 1272 0
-122 -1273 0
-155 -1273 0
122 155 1273 0
-92 -1274 0
-122 -1274 0
92 122 1274 0
-153 -1275 0
1274 -1275 0
153 -1274 1275 0
-62 -1276 0
1274 -1276 0
62 -1274 1276 0
-151 -1277 0
1276 -1277 0
151 -1276 1277 0
-158 -1278 0
-159 -1278 0
158 159 1278 0
-160 -1279 0
-161 -1279 0
160 161 1279 0
1278 -1280 0
1279 -1280 0
-1278 -1279 1280 0
-144 -1281 0
149 -1281 0
144 -149 1281 0
144 -1282 0
-149 -1282 0
-144 149 1282 0
-163 -1283 0
-164 -1283 0
163 164 1283 0
-165 -1284 0
1276 -1284 0
165 -1276 1284 0
-162 -1285 0
-166 -1285 0
162 166 1285 0
-171 -1286 0
-172 -1286 0
171 172 1286 0
-174 -1287 0
-175 -1287 0
174 175 1287 0
-177 -1288 0
-178 -1288 0
177 178 1288 0
-28 -1289 0
-180 -1289 0
28 180 1289 0
-27 -1290 0
-182 -1290 0
27 182 1290 0
-26 -1291 0
-184 -1291 0
26 184 1291 0
-25 -1292 0
-186 -1292 0
25 186 1292 0
-179 -1293 0
-185 -1293 0
179 185 1293 0
-176 -1294 0
-179 -1294 0
176 179 1294 0
-183 -1295 0
1294 -1295 0
183 -1294 1295 0
-173 -1296 0
1294 -1296 0
173 -1294 1296 0
-181 -1297 0
1296 -1297 0
181 -1296 1297 0
-188 -1298 0
-189 -1298 0
188 189 1298 0
-190 -1299 0
-191 -1299 0
190 191 1299 0
1298 -1300 0
1299 -1300 0
-1298 -1299 1300 0
-193 -1301 0
-194 -1301 0
193 194 1301 0
-195 -1302 0
1296 -1302 0
195 -1296 1302 0
-192 -1303 0
-196 -1303 0
192 196 1303 0
-192 -1304 0
197 -1304 0
192 -197 1304 0
192 -1305 0
-197 -1305 0
-192 197 1305 0
-198 -1306 0
-199 -1306 0
198 199 1306 0
-201 -1307 0
-202 -1307 0
201 202 1307 0
-204 -1308 0
-205 -1308 0
204 205 1308 0
-207 -1309 0
-208 -1309 0
207 208 1309 0
-24 -1310 0
-210 -1310 0
24 210 1310 0
-23 -1311 0
-212 -1311 0
23 212 1311 0
-22 -1312 0
-214 -1312 0
22 214 1312 0
-21 -1313 0
-216 -1313 0
21 216 1313 0
-209 -1314 0
-215 -1314 0
209 215 1314 0
-206 -1315 0
-209 -1315 0
206 209 1315 0
-213 -1316 0
1315 -1316 0
213 -1315 1316 0
-203 -1317 0
1315 -1317 0
203 -1315 1317 0
-211 -1318 0
1317 -1318 0
211 -1317 1318 0
-218 -1319 0
-219 -1319 0
218 219 1319 0
-220 -1320 0
-221 -1320 0
220 221 1320 0
1319 -1321 0
1320 -1321 0
-1319 -1320 1321 0
-223 -1322 0
-224 -1322 0
223 224 1322 0
-225 -1323 0
1317 -1323 0
225 -1317 1323 0
-222 -1324 0
-226 -1324 0
222 226 1324 0
-222 -1325 0
227 -1325 0
222 -227 1325 0
222 -1326 0
-227 -1326 0
-222 227 1326 0
-228 -1327 0
-229 -1327 0
228 229 1327 0
-231 -1328 0
-232 -1328 0
231 232 1328 0
-234 -1329 0
-235 -1329 0
234 235 1329 0
-20 -1330 0
-237 -1330 0
20 237 1330 0
-19 -1331 0
-239 -1331 0
19 239 1331 0
-18 -1332 0
-241 -1332 0
18 241 1332 0
-17 -1333 0
-243 -1333 0
17 243 1333 0
-236 -1334 0
-242 -1334 0
236 242 1334 0
-233 -1335 0
-236 -1335 0
233 236 1335 0
-240 -1336 0
1335 -1336 0
240 -1335 1336 0
-245 -1337 0
-246 -1337 0
245 246 1337 0
-247 -1338 0
-248 -1338 0
247 248 1338 0
1337 -1339 0
1338 -1339 0
-1337 -1338 1339 0
-250 -1340 0
-251 -1340 0
250 251 1340 0
-249 -1341 0
-253 -1341 0
249 253 1341 0
-249 -1342 0
254 -1342 0
249 -254 1342 0
249 -1343 0
-254 -1343 0
-249 254 1343 0
-255 -1344 0
-256 -1344 0
255 256 1344 0
-258 -1345 0
-259 -1345 0
258 259 1345 0
-261 -1346 0
-262 -1346 0
261 262 1346 0
-264 -1347 0
-265 -1347 0
264 265 1347 0
-32 -1348 0
-267 -1348 0
32 267 1348 0
-31 -1349 0
-269 -1349 0
31 269 1349 0
-30 -1350 0
-271 -1350 0
30 271 1350 0
-29 -1351 0
-273 -1351 0
29 273 1351 0
-266 -1352 0
-272 -1352 0
266 272 1352 0
-263 -1353 0
-266 -1353 0
263 266 1353 0
-270 -1354 0
1353 -1354 0
270 -1353 1354 0
-260 -1355 0
1353 -1355 0
260 -1353 1355 0
-268 -1356 0
1355 -1356 0
268 -1355 1356 0
-275 -1357 0
-276 -1357 0
275 276 1357 0
-277 -1358 0
-278 -1358 0
277 278 1358 0
1357 -1359 0
1358 -1359 0
-1357 -1358 1359 0
-280 -1360 0
-281 -1360 0
280 281 1360 0
-282 -1361 0
1355 -1361 0
282 -1355 1361 0
-279 -1362 0
-283 -1362 0
279 283 1362 0
-284 -1363 0
-285 -1363 0
284 285 1363 0
-197 -1364 0
-287 -1364 0
197 287 1364 0
-227 -1365 0
-289 -1365 0
227 289 1365 0
-254 -1366 0
-291 -1366 0
254 291 1366 0
-257 -1367 0
-290 -1367 0
257 290 1367 0
-230 -1368 0
-257 -1368 0
230 257 1368 0
-288 -1369 0
1368 -1369 0
288 -1368 1369 0
-200 -1370 0
1368 -1370 0
200 -1368 1370 0
-286 -1371 0
1370 -1371 0
286 -1370 1371 0
-293 -1372 0
-294 -1372 0
293 294 1372 0
-295 -1373 0
-296 -1373 0
295 296 1373 0
1372 -1374 0
1373 -1374 0
-1372 -1373 1374 0
-279 -1375 0
284 -1375 0
279 -284 1375 0
279 -1376 0
-284 -1376 0
-279 284 1376 0
-298 -1377 0
-299 -1377 0
298 299 1377 0
-300 -1378 0
1370 -1378 0
300 -1370 1378 0
-297 -1379 0
-301 -1379 0
297 301 1379 0
167 -1380 0
-302 -1380 0
-167 302 1380 0
-167 -1381 0
302 -1381 0
167 -302 1381 0
-1380 -1382 0
-1381 -1382 0
1380 1381 1382 0
166 -1383 0
-301 -1383 0
-166 301 1383 0
-166 -1384 0
301 -1384 0
166 -301 1384 0
-1383 -1385 0
-1384 -1385 0
1383 1384 1385 0
162 -1386 0
-297 -1386 0
-162 297 1386 0
-162 -1387 0
297 -1387 0
162 -297 1387 0
-1386 -1388 0
-1387 -1388 0
1386 1387 1388 0
303 -1389 0
304 -1389 0
-303 -304 1389 0
305 -1390 0
1389 -1390 0
-305 -1389 1390 0
-3 -1391 0
-169 -1391 0
3 169 1391 0
3 -1392 0
169 -1392 0
-3 -169 1392 0
-1391 -1393 0
-1392 -1393 0
1391 1392 1393 0
-19 -1394 0
-170 -1394 0
19 170 1394 0
19 -1395 0
170 -1395 0
-19 -170 1395 0
-1394 -1396 0
-1395 -1396 0
1394 1395 1396 0
